
Gurobi 8.0.1 (win64, Python) logging started 10/14/18 16:07:45

Academic license - for non-commercial use only

Gurobi 8.0.1 (win64, Python) logging started 10/14/18 16:50:20

Academic license - for non-commercial use only

Gurobi 8.0.1 (win64, Python) logging started 10/14/18 16:50:35

Academic license - for non-commercial use only
Optimize a model with 333 rows, 16479 columns and 8973 nonzeros
Variable types: 0 continuous, 16479 integer (16479 binary)
Coefficient statistics:
  Matrix range     [1e+00, 4e+01]
  Objective range  [2e+00, 8e+00]
  Bounds range     [1e+00, 1e+00]
  RHS range        [1e+00, 4e+01]
Presolve removed 141 rows and 13459 columns
Presolve time: 0.00s

Explored 0 nodes (0 simplex iterations) in 0.01 seconds
Thread count was 1 (of 8 available processors)

Solution count 0

Model is infeasible
Best objective -, best bound -, gap -

    Variable            X 
-------------------------

Gurobi 8.0.1 (win64, Python) logging started 10/14/18 17:42:49

Academic license - for non-commercial use only

Gurobi 8.0.1 (win64, Python) logging started 10/14/18 17:43:07

Academic license - for non-commercial use only
Optimize a model with 396 rows, 16479 columns and 15786 nonzeros
Variable types: 0 continuous, 16479 integer (16479 binary)
Coefficient statistics:
  Matrix range     [5e-02, 4e+01]
  Objective range  [2e+00, 8e+00]
  Bounds range     [1e+00, 1e+00]
  RHS range        [1e+00, 4e+01]
Presolve removed 168 rows and 13459 columns
Presolve time: 0.00s

Explored 0 nodes (0 simplex iterations) in 0.01 seconds
Thread count was 1 (of 8 available processors)

Solution count 0

Model is infeasible
Best objective -, best bound -, gap -

    Variable            X 
-------------------------

Gurobi 8.0.1 (win64, Python) logging started 10/14/18 17:50:08

Academic license - for non-commercial use only

Gurobi 8.0.1 (win64, Python) logging started 10/14/18 17:52:31

Academic license - for non-commercial use only
Optimize a model with 441 rows, 16479 columns and 28341 nonzeros
Variable types: 0 continuous, 16479 integer (16479 binary)
Coefficient statistics:
  Matrix range     [5e-02, 4e+01]
  Objective range  [2e+00, 8e+00]
  Bounds range     [1e+00, 1e+00]
  RHS range        [1e+00, 4e+01]
Presolve removed 213 rows and 13459 columns
Presolve time: 0.00s

Explored 0 nodes (0 simplex iterations) in 0.01 seconds
Thread count was 1 (of 8 available processors)

Solution count 0

Model is infeasible
Best objective -, best bound -, gap -

    Variable            X 
-------------------------

Gurobi 8.0.1 (win64, Python) logging started 10/14/18 17:53:04

Academic license - for non-commercial use only
Optimize a model with 441 rows, 16479 columns and 28341 nonzeros
Variable types: 0 continuous, 16479 integer (16479 binary)
Coefficient statistics:
  Matrix range     [5e-02, 4e+01]
  Objective range  [2e+00, 8e+00]
  Bounds range     [1e+00, 1e+00]
  RHS range        [1e+00, 4e+01]
Presolve removed 213 rows and 13459 columns
Presolve time: 0.00s

Explored 0 nodes (0 simplex iterations) in 0.01 seconds
Thread count was 1 (of 8 available processors)

Solution count 0

Model is infeasible
Best objective -, best bound -, gap -

    Variable            X 
-------------------------

Gurobi 8.0.1 (win64, Python) logging started 10/14/18 18:15:13

Academic license - for non-commercial use only

Gurobi 8.0.1 (win64, Python) logging started 10/14/18 18:18:03

Academic license - for non-commercial use only

Gurobi 8.0.1 (win64, Python) logging started 10/14/18 18:18:53

Academic license - for non-commercial use only
Optimize a model with 458 rows, 17298 columns and 28429 nonzeros
Variable types: 0 continuous, 17298 integer (17298 binary)
Coefficient statistics:
  Matrix range     [5e-02, 4e+01]
  Objective range  [2e+00, 8e+00]
  Bounds range     [1e+00, 1e+00]
  RHS range        [1e+00, 4e+01]
Presolve removed 224 rows and 14271 columns
Presolve time: 0.00s

Explored 0 nodes (0 simplex iterations) in 0.01 seconds
Thread count was 1 (of 8 available processors)

Solution count 0

Model is infeasible
Best objective -, best bound -, gap -

    Variable            X 
-------------------------

Gurobi 8.0.1 (win64, Python) logging started 10/14/18 18:25:57

Academic license - for non-commercial use only

Gurobi 8.0.1 (win64, Python) logging started 10/14/18 18:26:17

Academic license - for non-commercial use only

Gurobi 8.0.1 (win64, Python) logging started 10/14/18 18:29:16

Academic license - for non-commercial use only

Gurobi 8.0.1 (win64, Python) logging started 10/14/18 18:29:40

Academic license - for non-commercial use only

Gurobi 8.0.1 (win64, Python) logging started 10/14/18 18:30:02

Academic license - for non-commercial use only

Gurobi 8.0.1 (win64, Python) logging started 10/14/18 18:30:59

Academic license - for non-commercial use only
Optimize a model with 472 rows, 17298 columns and 28450 nonzeros
Variable types: 0 continuous, 17298 integer (17298 binary)
Coefficient statistics:
  Matrix range     [5e-02, 4e+01]
  Objective range  [2e+00, 8e+00]
  Bounds range     [1e+00, 1e+00]
  RHS range        [1e+00, 4e+01]
Presolve removed 238 rows and 14271 columns
Presolve time: 0.01s

Explored 0 nodes (0 simplex iterations) in 0.02 seconds
Thread count was 1 (of 8 available processors)

Solution count 0

Model is infeasible
Best objective -, best bound -, gap -

    Variable            X 
-------------------------

Gurobi 8.0.1 (win64, Python) logging started 10/14/18 18:36:04

Academic license - for non-commercial use only

Gurobi 8.0.1 (win64, Python) logging started 10/14/18 18:36:41

Academic license - for non-commercial use only

Gurobi 8.0.1 (win64, Python) logging started 10/14/18 18:37:36

Academic license - for non-commercial use only

Gurobi 8.0.1 (win64, Python) logging started 10/14/18 18:38:55

Academic license - for non-commercial use only

Gurobi 8.0.1 (win64, Python) logging started 10/14/18 18:39:36

Academic license - for non-commercial use only

Gurobi 8.0.1 (win64, Python) logging started 10/14/18 18:47:47

Academic license - for non-commercial use only

Gurobi 8.0.1 (win64, Python) logging started 10/14/18 18:50:37

Academic license - for non-commercial use only
Optimize a model with 859 rows, 17298 columns and 28837 nonzeros
Variable types: 0 continuous, 17298 integer (17289 binary)
Coefficient statistics:
  Matrix range     [5e-02, 6e+05]
  Objective range  [2e+00, 8e+00]
  Bounds range     [1e+00, 1e+00]
  RHS range        [1e+00, 6e+05]
Presolve removed 625 rows and 14271 columns
Presolve time: 0.00s

Explored 0 nodes (0 simplex iterations) in 0.01 seconds
Thread count was 1 (of 8 available processors)

Solution count 0

Model is infeasible
Best objective -, best bound -, gap -

    Variable            X 
-------------------------

Gurobi 8.0.1 (win64, Python) logging started 10/14/18 19:04:43

Academic license - for non-commercial use only

Gurobi 8.0.1 (win64, Python) logging started 10/14/18 19:05:39

Academic license - for non-commercial use only

Gurobi 8.0.1 (win64, Python) logging started 10/14/18 19:06:03

Academic license - for non-commercial use only
Optimize a model with 39854 rows, 17298 columns and 119816 nonzeros
Variable types: 0 continuous, 17298 integer (17289 binary)
Coefficient statistics:
  Matrix range     [5e-02, 6e+05]
  Objective range  [2e+00, 8e+00]
  Bounds range     [1e+00, 1e+00]
  RHS range        [1e+00, 6e+05]
Presolve removed 802 rows and 715 columns
Presolve time: 0.01s

Explored 0 nodes (0 simplex iterations) in 0.04 seconds
Thread count was 1 (of 8 available processors)

Solution count 0

Model is infeasible
Best objective -, best bound -, gap -

    Variable            X 
-------------------------

Gurobi 8.0.1 (win64, Python) logging started 10/14/18 19:11:29

Academic license - for non-commercial use only

Gurobi 8.0.1 (win64, Python) logging started 10/14/18 19:11:50

Academic license - for non-commercial use only

Gurobi 8.0.1 (win64, Python) logging started 10/14/18 19:13:16

Academic license - for non-commercial use only
Optimize a model with 39855 rows, 17298 columns and 120388 nonzeros
Variable types: 0 continuous, 17298 integer (17289 binary)
Coefficient statistics:
  Matrix range     [5e-02, 6e+05]
  Objective range  [2e+00, 8e+00]
  Bounds range     [1e+00, 1e+00]
  RHS range        [1e+00, 1e+06]
Presolve removed 802 rows and 715 columns
Presolve time: 0.02s

Explored 0 nodes (0 simplex iterations) in 0.03 seconds
Thread count was 1 (of 8 available processors)

Solution count 0

Model is infeasible
Best objective -, best bound -, gap -

    Variable            X 
-------------------------

Gurobi 8.0.1 (win64, Python) logging started 10/14/18 19:17:26

Academic license - for non-commercial use only
Optimize a model with 39855 rows, 17298 columns and 120388 nonzeros
Variable types: 0 continuous, 17298 integer (17289 binary)
Coefficient statistics:
  Matrix range     [5e-01, 6e+05]
  Objective range  [2e+00, 8e+00]
  Bounds range     [1e+00, 1e+00]
  RHS range        [1e+00, 1e+06]
Presolve removed 802 rows and 715 columns
Presolve time: 0.01s

Explored 0 nodes (0 simplex iterations) in 0.03 seconds
Thread count was 1 (of 8 available processors)

Solution count 0

Model is infeasible
Best objective -, best bound -, gap -

    Variable            X 
-------------------------

Gurobi 8.0.1 (win64, Python) logging started 10/14/18 19:18:12

Academic license - for non-commercial use only
Optimize a model with 39855 rows, 17298 columns and 117877 nonzeros
Variable types: 0 continuous, 17298 integer (17289 binary)
Coefficient statistics:
  Matrix range     [1e+00, 6e+05]
  Objective range  [2e+00, 8e+00]
  Bounds range     [1e+00, 1e+00]
  RHS range        [1e+00, 1e+06]
Presolve removed 575 rows and 319 columns
Presolve time: 0.02s

Explored 0 nodes (0 simplex iterations) in 0.03 seconds
Thread count was 1 (of 8 available processors)

Solution count 0

Model is infeasible
Best objective -, best bound -, gap -

    Variable            X 
-------------------------

Gurobi 8.0.1 (win64, Python) logging started 10/14/18 19:22:57

Academic license - for non-commercial use only
Optimize a model with 39855 rows, 17298 columns and 117877 nonzeros
Variable types: 0 continuous, 17298 integer (17289 binary)
Coefficient statistics:
  Matrix range     [1e+00, 6e+05]
  Objective range  [2e+00, 8e+00]
  Bounds range     [1e+00, 1e+00]
  RHS range        [1e+00, 1e+06]
Presolve removed 575 rows and 319 columns
Presolve time: 0.02s

Explored 0 nodes (0 simplex iterations) in 0.04 seconds
Thread count was 1 (of 8 available processors)

Solution count 0

Model is infeasible
Best objective -, best bound -, gap -

Computing Irreducible Inconsistent Subsystem (IIS)...

      Constraints           Bounds       Runtime
     Min       Max       Min      Max
------------------------------------------------
        0    39407         0        9         0s
        3        3         0        0         2s

IIS computed: 3 constraints, 0 bounds
IIS runtime: 2.04 seconds

Gurobi 8.0.1 (win64, Python) logging started 10/14/18 19:25:13

Academic license - for non-commercial use only
Optimize a model with 39855 rows, 17298 columns and 117877 nonzeros
Variable types: 0 continuous, 17298 integer (17289 binary)
Coefficient statistics:
  Matrix range     [1e+00, 6e+05]
  Objective range  [2e+00, 8e+00]
  Bounds range     [1e+00, 1e+00]
  RHS range        [1e+00, 1e+06]
Presolve removed 575 rows and 319 columns
Presolve time: 0.01s

Explored 0 nodes (0 simplex iterations) in 0.03 seconds
Thread count was 1 (of 8 available processors)

Solution count 0

Model is infeasible
Best objective -, best bound -, gap -

Computing Irreducible Inconsistent Subsystem (IIS)...

      Constraints           Bounds       Runtime
     Min       Max       Min      Max
------------------------------------------------
        0    39407         0        9         0s
        3        3         0        0         2s

IIS computed: 3 constraints, 0 bounds
IIS runtime: 2.00 seconds

Gurobi 8.0.1 (win64, Python) logging started 10/14/18 19:25:52

Academic license - for non-commercial use only
Optimize a model with 39855 rows, 17298 columns and 117877 nonzeros
Variable types: 0 continuous, 17298 integer (17289 binary)
Coefficient statistics:
  Matrix range     [1e+00, 6e+05]
  Objective range  [2e+00, 8e+00]
  Bounds range     [1e+00, 1e+00]
  RHS range        [1e+00, 1e+11]
Warning: Model contains large rhs
         Consider reformulating model or setting NumericFocus parameter
         to avoid numerical issues.
Presolve removed 576 rows and 319 columns
Presolve time: 0.02s

Explored 0 nodes (0 simplex iterations) in 0.03 seconds
Thread count was 1 (of 8 available processors)

Solution count 0

Model is infeasible
Best objective -, best bound -, gap -

    Variable            X 
-------------------------

Gurobi 8.0.1 (win64, Python) logging started 10/14/18 19:26:02

Academic license - for non-commercial use only
Optimize a model with 39855 rows, 17298 columns and 117877 nonzeros
Variable types: 0 continuous, 17298 integer (17289 binary)
Coefficient statistics:
  Matrix range     [1e+00, 6e+05]
  Objective range  [2e+00, 8e+00]
  Bounds range     [1e+00, 1e+00]
  RHS range        [1e+00, 1e+11]
Warning: Model contains large rhs
         Consider reformulating model or setting NumericFocus parameter
         to avoid numerical issues.
Presolve removed 576 rows and 319 columns
Presolve time: 0.02s

Explored 0 nodes (0 simplex iterations) in 0.04 seconds
Thread count was 1 (of 8 available processors)

Solution count 0

Model is infeasible
Best objective -, best bound -, gap -

Gurobi 8.0.1 (win64, Python) logging started 10/14/18 19:27:16

Academic license - for non-commercial use only
Optimize a model with 39855 rows, 17298 columns and 117877 nonzeros
Variable types: 0 continuous, 17298 integer (17289 binary)
Coefficient statistics:
  Matrix range     [1e+00, 6e+05]
  Objective range  [2e+00, 8e+00]
  Bounds range     [1e+00, 1e+00]
  RHS range        [1e+00, 1e+11]
Warning: Model contains large rhs
         Consider reformulating model or setting NumericFocus parameter
         to avoid numerical issues.
Presolve removed 576 rows and 319 columns
Presolve time: 0.01s

Explored 0 nodes (0 simplex iterations) in 0.03 seconds
Thread count was 1 (of 8 available processors)

Solution count 0

Model is infeasible
Best objective -, best bound -, gap -

Computing Irreducible Inconsistent Subsystem (IIS)...

      Constraints           Bounds       Runtime
     Min       Max       Min      Max
------------------------------------------------
        0    39407         0        9         0s
        3        3         0        0         2s

IIS computed: 3 constraints, 0 bounds
IIS runtime: 2.08 seconds
Warning: variable name "assigned_to_community[0,Villa Las Rosas]" has a space
Warning: constraint name "r3[Villa Las Rosas]" has a space
Warning: to let Gurobi read it back, use rlp format

Gurobi 8.0.1 (win64, Python) logging started 10/14/18 19:28:50

Academic license - for non-commercial use only
Optimize a model with 39855 rows, 17298 columns and 117877 nonzeros
Variable types: 0 continuous, 17298 integer (17289 binary)
Coefficient statistics:
  Matrix range     [1e+00, 6e+05]
  Objective range  [2e+00, 8e+00]
  Bounds range     [1e+00, 1e+00]
  RHS range        [1e+00, 1e+11]
Warning: Model contains large rhs
         Consider reformulating model or setting NumericFocus parameter
         to avoid numerical issues.
Presolve removed 576 rows and 319 columns
Presolve time: 0.02s

Explored 0 nodes (0 simplex iterations) in 0.04 seconds
Thread count was 1 (of 8 available processors)

Solution count 0

Model is infeasible
Best objective -, best bound -, gap -

Gurobi 8.0.1 (win64, Python) logging started 10/14/18 20:11:47

Academic license - for non-commercial use only
Optimize a model with 39855 rows, 17298 columns and 117877 nonzeros
Variable types: 0 continuous, 17298 integer (17289 binary)
Coefficient statistics:
  Matrix range     [1e+00, 6e+05]
  Objective range  [2e+00, 8e+00]
  Bounds range     [1e+00, 1e+00]
  RHS range        [1e+00, 1e+11]
Warning: Model contains large rhs
         Consider reformulating model or setting NumericFocus parameter
         to avoid numerical issues.
Presolve removed 576 rows and 319 columns
Presolve time: 0.02s

Explored 0 nodes (0 simplex iterations) in 0.04 seconds
Thread count was 1 (of 8 available processors)

Solution count 0

Model is infeasible
Best objective -, best bound -, gap -

Computing Irreducible Inconsistent Subsystem (IIS)...

      Constraints           Bounds       Runtime
     Min       Max       Min      Max
------------------------------------------------
        0    39406         0        9         0s
        3        3         0        0         2s

IIS computed: 3 constraints, 0 bounds
IIS runtime: 2.26 seconds
Warning: variable name "assigned_to_community[0,Villa Las Rosas]" has a space
Warning: constraint name "r3[Villa Las Rosas]" has a space
Warning: to let Gurobi read it back, use rlp format

Gurobi 8.0.1 (win64, Python) logging started 10/14/18 20:13:57

Academic license - for non-commercial use only
Optimize a model with 38631 rows, 16767 columns and 114034 nonzeros
Variable types: 0 continuous, 16767 integer (16758 binary)
Coefficient statistics:
  Matrix range     [1e+00, 6e+05]
  Objective range  [2e+00, 8e+00]
  Bounds range     [1e+00, 1e+00]
  RHS range        [1e+00, 1e+11]
Warning: Model contains large rhs
         Consider reformulating model or setting NumericFocus parameter
         to avoid numerical issues.
Presolve removed 576 rows and 319 columns
Presolve time: 0.02s

Explored 0 nodes (0 simplex iterations) in 0.04 seconds
Thread count was 1 (of 8 available processors)

Solution count 0

Model is infeasible
Best objective -, best bound -, gap -

Computing Irreducible Inconsistent Subsystem (IIS)...

      Constraints           Bounds       Runtime
     Min       Max       Min      Max
------------------------------------------------
        0    38182         0        9         0s
        3        3         0        0         2s

IIS computed: 3 constraints, 0 bounds
IIS runtime: 2.43 seconds
Warning: variable name "assigned_to_community[0,Villa Las Rosas]" has a space
Warning: constraint name "r3[Villa Las Rosas]" has a space
Warning: to let Gurobi read it back, use rlp format
